NAME : OMNETRUN
COMMENT : 524.61
TYPE : CVRP
DIMENSION : 21
EDGE_WEIGHT_TYPE : EUC_2D
CAPACITY : 21
NODE_COORD_SECTION
1 0.107093 -0.77924
2 134.149 -878.806
3 85.3316 -1411.81
4 223.117 -2020.01
5 66.3001 -5035.61
6 236.199 -5596.35
7 491.697 -1003.77
8 449.366 -2341.04
9 259.848 -2948.49
10 364.517 -3811.87
11 463.019 -4324.61
12 715.279 -26.2927
13 672.929 -1504.77
14 713.277 -2712.29
15 711.492 -4071.71
16 527.233 -4917.68
17 522.272 -5847.3
18 824.92 -596.244
19 812.49 -2189.11
20 865.91 -3244.01
21 919.474 -4712.93
DEMAND_SECTION
1 0
2 1
3 1
4 1
5 1
6 1
7 1
8 1
9 1
10 1
11 1
12 1
13 1
14 1
15 1
16 1
17 1
18 1
19 1
20 1
21 1
DEPOT_SECTION
1
-1
EOF
